certificates/rado_a5_c254_N50.cnf
c Rad2 upper bound instance: x1 + 5*x2 - x3 = 254, interval [1,50]
p cnf 50 470
1 5 50 0
-1 -5 -50 0
2 6 50 0
-2 -6 -50 0
3 7 50 0
-3 -7 -50 0
4 8 50 0
-4 -8 -50 0
5 9 50 0
-5 -9 -50 0
1 10 49 0
-1 -10 -49 0
6 10 50 0
-6 -10 -50 0
2 11 49 0
-2 -11 -49 0
7 11 50 0
-7 -11 -50 0
3 12 49 0
-3 -12 -49 0
8 12 50 0
-8 -12 -50 0
4 13 49 0
-4 -13 -49 0
9 13 50 0
-9 -13 -50 0
5 14 49 0
-5 -14 -49 0
10 14 50 0
-10 -14 -50 0
1 15 48 0
-1 -15 -48 0
6 15 49 0
-6 -15 -49 0
11 15 50 0
-11 -15 -50 0
2 16 48 0
-2 -16 -48 0
7 16 49 0
-7 -16 -49 0
12 16 50 0
-12 -16 -50 0
3 17 48 0
-3 -17 -48 0
8 17 49 0
-8 -17 -49 0
13 17 50 0
-13 -17 -50 0
4 18 48 0
-4 -18 -48 0
9 18 49 0
-9 -18 -49 0
14 18 50 0
-14 -18 -50 0
5 19 48 0
-5 -19 -48 0
10 19 49 0
-10 -19 -49 0
15 19 50 0
-15 -19 -50 0
1 20 47 0
-1 -20 -47 0
6 20 48 0
-6 -20 -48 0
11 20 49 0
-11 -20 -49 0
16 20 50 0
-16 -20 -50 0
2 21 47 0
-2 -21 -47 0
7 21 48 0
-7 -21 -48 0
12 21 49 0
-12 -21 -49 0
17 21 50 0
-17 -21 -50 0
3 22 47 0
-3 -22 -47 0
8 22 48 0
-8 -22 -48 0
13 22 49 0
-13 -22 -49 0
18 22 50 0
-18 -22 -50 0
4 23 47 0
-4 -23 -47 0
9 23 48 0
-9 -23 -48 0
14 23 49 0
-14 -23 -49 0
19 23 50 0
-19 -23 -50 0
5 24 47 0
-5 -24 -47 0
10 24 48 0
-10 -24 -48 0
15 24 49 0
-15 -24 -49 0
20 24 50 0
-20 -24 -50 0
1 25 46 0
-1 -25 -46 0
6 25 47 0
-6 -25 -47 0
11 25 48 0
-11 -25 -48 0
16 25 49 0
-16 -25 -49 0
21 25 50 0
-21 -25 -50 0
2 26 46 0
-2 -26 -46 0
7 26 47 0
-7 -26 -47 0
12 26 48 0
-12 -26 -48 0
17 26 49 0
-17 -26 -49 0
22 26 50 0
-22 -26 -50 0
3 27 46 0
-3 -27 -46 0
8 27 47 0
-8 -27 -47 0
13 27 48 0
-13 -27 -48 0
18 27 49 0
-18 -27 -49 0
23 27 50 0
-23 -27 -50 0
4 28 46 0
-4 -28 -46 0
9 28 47 0
-9 -28 -47 0
14 28 48 0
-14 -28 -48 0
19 28 49 0
-19 -28 -49 0
24 28 50 0
-24 -28 -50 0
5 29 46 0
-5 -29 -46 0
10 29 47 0
-10 -29 -47 0
15 29 48 0
-15 -29 -48 0
20 29 49 0
-20 -29 -49 0
25 29 50 0
-25 -29 -50 0
1 30 45 0
-1 -30 -45 0
6 30 46 0
-6 -30 -46 0
11 30 47 0
-11 -30 -47 0
16 30 48 0
-16 -30 -48 0
21 30 49 0
-21 -30 -49 0
26 30 50 0
-26 -30 -50 0
2 31 45 0
-2 -31 -45 0
7 31 46 0
-7 -31 -46 0
12 31 47 0
-12 -31 -47 0
17 31 48 0
-17 -31 -48 0
22 31 49 0
-22 -31 -49 0
27 31 50 0
-27 -31 -50 0
3 32 45 0
-3 -32 -45 0
8 32 46 0
-8 -32 -46 0
13 32 47 0
-13 -32 -47 0
18 32 48 0
-18 -32 -48 0
23 32 49 0
-23 -32 -49 0
28 32 50 0
-28 -32 -50 0
4 33 45 0
-4 -33 -45 0
9 33 46 0
-9 -33 -46 0
14 33 47 0
-14 -33 -47 0
19 33 48 0
-19 -33 -48 0
24 33 49 0
-24 -33 -49 0
29 33 50 0
-29 -33 -50 0
5 34 45 0
-5 -34 -45 0
10 34 46 0
-10 -34 -46 0
15 34 47 0
-15 -34 -47 0
20 34 48 0
-20 -34 -48 0
25 34 49 0
-25 -34 -49 0
30 34 50 0
-30 -34 -50 0
1 35 44 0
-1 -35 -44 0
6 35 45 0
-6 -35 -45 0
11 35 46 0
-11 -35 -46 0
16 35 47 0
-16 -35 -47 0
21 35 48 0
-21 -35 -48 0
26 35 49 0
-26 -35 -49 0
31 35 50 0
-31 -35 -50 0
2 36 44 0
-2 -36 -44 0
7 36 45 0
-7 -36 -45 0
12 36 46 0
-12 -36 -46 0
17 36 47 0
-17 -36 -47 0
22 36 48 0
-22 -36 -48 0
27 36 49 0
-27 -36 -49 0
32 36 50 0
-32 -36 -50 0
3 37 44 0
-3 -37 -44 0
8 37 45 0
-8 -37 -45 0
13 37 46 0
-13 -37 -46 0
18 37 47 0
-18 -37 -47 0
23 37 48 0
-23 -37 -48 0
28 37 49 0
-28 -37 -49 0
33 37 50 0
-33 -37 -50 0
4 38 44 0
-4 -38 -44 0
9 38 45 0
-9 -38 -45 0
14 38 46 0
-14 -38 -46 0
19 38 47 0
-19 -38 -47 0
24 38 48 0
-24 -38 -48 0
29 38 49 0
-29 -38 -49 0
34 38 50 0
-34 -38 -50 0
5 39 44 0
-5 -39 -44 0
10 39 45 0
-10 -39 -45 0
15 39 46 0
-15 -39 -46 0
20 39 47 0
-20 -39 -47 0
25 39 48 0
-25 -39 -48 0
30 39 49 0
-30 -39 -49 0
35 39 50 0
-35 -39 -50 0
1 40 43 0
-1 -40 -43 0
6 40 44 0
-6 -40 -44 0
11 40 45 0
-11 -40 -45 0
16 40 46 0
-16 -40 -46 0
21 40 47 0
-21 -40 -47 0
26 40 48 0
-26 -40 -48 0
31 40 49 0
-31 -40 -49 0
36 40 50 0
-36 -40 -50 0
2 41 43 0
-2 -41 -43 0
7 41 44 0
-7 -41 -44 0
12 41 45 0
-12 -41 -45 0
17 41 46 0
-17 -41 -46 0
22 41 47 0
-22 -41 -47 0
27 41 48 0
-27 -41 -48 0
32 41 49 0
-32 -41 -49 0
37 41 50 0
-37 -41 -50 0
3 42 43 0
-3 -42 -43 0
8 42 44 0
-8 -42 -44 0
13 42 45 0
-13 -42 -45 0
18 42 46 0
-18 -42 -46 0
23 42 47 0
-23 -42 -47 0
28 42 48 0
-28 -42 -48 0
33 42 49 0
-33 -42 -49 0
38 42 50 0
-38 -42 -50 0
4 43 0
-4 -43 0
9 43 44 0
-9 -43 -44 0
14 43 45 0
-14 -43 -45 0
19 43 46 0
-19 -43 -46 0
24 43 47 0
-24 -43 -47 0
29 43 48 0
-29 -43 -48 0
34 43 49 0
-34 -43 -49 0
39 43 50 0
-39 -43 -50 0
5 43 44 0
-5 -43 -44 0
10 44 0
-10 -44 0
15 44 45 0
-15 -44 -45 0
20 44 46 0
-20 -44 -46 0
25 44 47 0
-25 -44 -47 0
30 44 48 0
-30 -44 -48 0
35 44 49 0
-35 -44 -49 0
40 44 50 0
-40 -44 -50 0
1 42 45 0
-1 -42 -45 0
6 43 45 0
-6 -43 -45 0
11 44 45 0
-11 -44 -45 0
16 45 0
-16 -45 0
21 45 46 0
-21 -45 -46 0
26 45 47 0
-26 -45 -47 0
31 45 48 0
-31 -45 -48 0
36 45 49 0
-36 -45 -49 0
41 45 50 0
-41 -45 -50 0
2 42 46 0
-2 -42 -46 0
7 43 46 0
-7 -43 -46 0
12 44 46 0
-12 -44 -46 0
17 45 46 0
-17 -45 -46 0
22 46 0
-22 -46 0
27 46 47 0
-27 -46 -47 0
32 46 48 0
-32 -46 -48 0
37 46 49 0
-37 -46 -49 0
42 46 50 0
-42 -46 -50 0
3 42 47 0
-3 -42 -47 0
8 43 47 0
-8 -43 -47 0
13 44 47 0
-13 -44 -47 0
18 45 47 0
-18 -45 -47 0
23 46 47 0
-23 -46 -47 0
28 47 0
-28 -47 0
33 47 48 0
-33 -47 -48 0
38 47 49 0
-38 -47 -49 0
43 47 50 0
-43 -47 -50 0
4 42 48 0
-4 -42 -48 0
9 43 48 0
-9 -43 -48 0
14 44 48 0
-14 -44 -48 0
19 45 48 0
-19 -45 -48 0
24 46 48 0
-24 -46 -48 0
29 47 48 0
-29 -47 -48 0
34 48 0
-34 -48 0
39 48 49 0
-39 -48 -49 0
44 48 50 0
-44 -48 -50 0
5 42 49 0
-5 -42 -49 0
10 43 49 0
-10 -43 -49 0
15 44 49 0
-15 -44 -49 0
20 45 49 0
-20 -45 -49 0
25 46 49 0
-25 -46 -49 0
30 47 49 0
-30 -47 -49 0
35 48 49 0
-35 -48 -49 0
40 49 0
-40 -49 0
45 49 50 0
-45 -49 -50 0
1 41 50 0
-1 -41 -50 0
6 42 50 0
-6 -42 -50 0
11 43 50 0
-11 -43 -50 0
16 44 50 0
-16 -44 -50 0
21 45 50 0
-21 -45 -50 0
26 46 50 0
-26 -46 -50 0
31 47 50 0
-31 -47 -50 0
36 48 50 0
-36 -48 -50 0
41 49 50 0
-41 -49 -50 0
46 50 0
-46 -50 0
