certificates/rado_a5_c254_N50.drat
-50 0
46 0
-22 0
18 0
26 0
-42 0
-2 0
38 0
6 0
-14 0
-30 0
10 0
34 0
0
